RT is False
Default write of storage_offers_DA.csv just to have a file (but constraint should be inactive)
Reading model...
...model read.
creating competitive generators file...
...competitive generators recorded.
Loading data...
.. day-ahead data with real-time VRE data read.
Compiling instance...
...instance created.
Creating Offer Mitigation (model will solve as dispatch if TRUE)...
Solving...

Welcome to IBM(R) ILOG(R) CPLEX(R) Interactive Optimizer 12.9.0.0
  with Simplex, Mixed Integer & Barrier Optimizers
5725-A06 5725-A29 5724-Y48 5724-Y49 5724-Y54 5724-Y55 5655-Y21
Copyright IBM Corp. 1988, 2019.  All Rights Reserved.

Type 'help' for a list of available commands.
Type 'help' followed by a command name for more
information on commands.

CPLEX> Logfile 'cplex.log' closed.
Logfile 'C:\Users\llavin\Desktop\test919\logs\tmpgjg98zg4.cplex.log' open.
CPLEX> New value for parallel optimization mode: -1
CPLEX> New value for mixed integer optimality gap tolerance: 0.01
CPLEX> New value for integrality tolerance: 1e-09
CPLEX> New value for feasibility tolerance: 0.01
CPLEX> New value for deterministic time limit in ticks: 75000
CPLEX> Problem 'C:\Users\llavin\Desktop\test919\logs\tmp126330x_.pyomo.lp' read.
Read time = 0.05 sec. (3.04 ticks)
CPLEX> Problem name         : C:\Users\llavin\Desktop\test919\logs\tmp126330x_.pyomo.lp
Objective sense      : Minimize
Variables            :   26081  [Nneg: 1,  Box: 21616,  Free: 4464]
Objective nonzeros   :    2496
Linear constraints   :   27515  [Less: 14006,  Greater: 4416,  Equal: 9093]
  Nonzeros           :   89219
  RHS nonzeros       :   12269

Variables            : Min LB: -5000.000        Max UB: 1000000.       
Objective nonzeros   : Min   : 15.73158         Max   : 124.0997       
Linear constraints   :
  Nonzeros           : Min   : 0.8500000        Max   : 3000.000       
  RHS nonzeros       : Min   : 0.8000000        Max   : 5000.000       
CPLEX> CPXPARAM_Parallel                                -1
CPXPARAM_Simplex_Tolerances_Feasibility          0.01
CPXPARAM_DetTimeLimit                            75000
CPXPARAM_MIP_Tolerances_MIPGap                   0.01
CPXPARAM_MIP_Tolerances_Integrality              1.0000000000000001e-09
Parallel mode: opportunistic, using up to 32 threads for concurrent optimization.
Tried aggregator 1 time.
LP Presolve eliminated 21377 rows and 15487 columns.
Aggregator did 746 substitutions.
Reduced LP has 5392 rows, 9848 columns, and 31788 nonzeros.
Presolve time = 0.06 sec. (30.20 ticks)
Symmetry aggregator did 5563 additional substitutions.

Iteration log . . .
Iteration:     1   Dual objective     =             0.000000
Perturbation started.
Iteration:   101   Dual objective     =             0.000000
Iteration:   334   Dual objective     =             1.385816
Iteration:   609   Dual objective     =             1.964253
Iteration:   880   Dual objective     =             2.103721
Iteration:  1085   Dual objective     =             2.215514
Iteration:  1355   Dual objective     =             2.265583
Iteration:  1603   Dual objective     =             2.295137
Iteration:  1819   Dual objective     =        168244.118796
Iteration:  2026   Dual objective     =        470650.699017
Iteration:  2216   Dual objective     =        506731.539899
Iteration:  2414   Dual objective     =        513119.518534
Iteration:  2736   Dual objective     =        515559.878051
Removing perturbation.

Dual crossover.
  Dual:  Fixing 13 variables.
       12 DMoves:  Infeasibility  1.10134124e-13  Objective  5.15558236e+05
        0 DMoves:  Infeasibility  4.26325641e-14  Objective  5.15558236e+05
  Dual:  Pushed 3, exchanged 10.
  Primal:  Fixing 8 variables.
        7 PMoves:  Infeasibility  1.44382284e-11  Objective  5.15558236e+05
        0 PMoves:  Infeasibility  1.44382284e-11  Objective  5.15558236e+05
  Primal:  Pushed 7, exchanged 1.
Using devex.

Primal simplex solved model.


Primal simplex - Optimal:  Objective =  5.1555823622e+05
Solution time =    0.20 sec.  Iterations = 1735 (1004)
Deterministic time = 80.87 ticks  (396.41 ticks/sec)

CPLEX> Solution written to file 'C:\Users\llavin\Desktop\test919\logs\tmpbuwgk0hf.cplex.sol'.
CPLEX> Exporting results... 
...storage offer mitigation file created
Converting model to MPEC...
...converted
NOTE: initial MIP solve with only storage competitive to get feasible solution
Solving...

Welcome to IBM(R) ILOG(R) CPLEX(R) Interactive Optimizer 12.9.0.0
  with Simplex, Mixed Integer & Barrier Optimizers
5725-A06 5725-A29 5724-Y48 5724-Y49 5724-Y54 5724-Y55 5655-Y21
Copyright IBM Corp. 1988, 2019.  All Rights Reserved.

Type 'help' for a list of available commands.
Type 'help' followed by a command name for more
information on commands.

CPLEX> Logfile 'cplex.log' closed.
Logfile 'C:\Users\llavin\Desktop\test919\logs\tmpqfq1r6s0.cplex.log' open.
CPLEX> New value for parallel optimization mode: -1
CPLEX> New value for mixed integer optimality gap tolerance: 0.01
CPLEX> New value for integrality tolerance: 1e-09
CPLEX> New value for feasibility tolerance: 0.01
CPLEX> New value for deterministic time limit in ticks: 75000
CPLEX> Problem 'C:\Users\llavin\Desktop\test919\logs\tmp1mytkjzt.pyomo.lp' read.
Read time = 0.23 sec. (14.78 ticks)
CPLEX> Problem name         : C:\Users\llavin\Desktop\test919\logs\tmp1mytkjzt.pyomo.lp
Objective sense      : Maximize
Variables            :   53805  [Nneg: 1,  Box: 22000,  Free: 4464,
                                 Binary: 27340]
Objective nonzeros   :    9027
Linear constraints   :  123205  [Less: 41346,  Greater: 59096,  Equal: 22763]
  Nonzeros           :  291751
  RHS nonzeros       :   67489

Variables            : Min LB: -5000.000        Max UB: 1000000.       
Objective nonzeros   : Min   : 0.8000000        Max   : 2500.000       
Linear constraints   :
  Nonzeros           : Min   : 0.8000000        Max   : 1000000.       
  RHS nonzeros       : Min   : 0.8000000        Max   : 1000000.       
CPLEX> CPXPARAM_Parallel                                -1
CPXPARAM_Simplex_Tolerances_Feasibility          0.01
CPXPARAM_DetTimeLimit                            75000
CPXPARAM_MIP_Tolerances_MIPGap                   0.01
CPXPARAM_MIP_Tolerances_Integrality              1.0000000000000001e-09
Tried aggregator 3 times.
MIP Presolve eliminated 88737 rows and 19061 columns.
MIP Presolve added 3376 rows and 0 columns.
MIP Presolve modified 24764 coefficients.
Aggregator did 12964 substitutions.
Reduced MIP has 24880 rows, 21224 columns, and 70957 nonzeros.
Reduced MIP has 8386 binaries, 0 generals, 0 SOSs, and 0 indicators.
Presolve time = 0.30 sec. (176.03 ticks)
Probing fixed 403 vars, tightened 2828 bounds.
Probing time = 1.20 sec. (885.12 ticks)
Tried aggregator 2 times.
MIP Presolve eliminated 912 rows and 808 columns.
MIP Presolve modified 2211 coefficients.
Aggregator did 40 substitutions.
Reduced MIP has 23928 rows, 20376 columns, and 68195 nonzeros.
Reduced MIP has 7983 binaries, 0 generals, 0 SOSs, and 0 indicators.
Presolve time = 0.11 sec. (68.10 ticks)
Probing time = 0.05 sec. (15.86 ticks)
Clique table members: 6383.
MIP emphasis: balance optimality and feasibility.
MIP search method: dynamic search.
Parallel mode: opportunistic, using up to 32 threads.
Root relaxation solution time = 0.45 sec. (340.46 ticks)

        Nodes                                         Cuts/
   Node  Left     Objective  IInf  Best Integer    Best Bound    ItCnt     Gap

      0     0     4003.3660  1890                   4003.3660     7374         
      0     0     4003.3660    14                    Cuts: 14     7380         
      0     0     4003.3660    13                 Flowcuts: 6     7383         
      0     3    infeasible                       Impl Bds: 1     7883         
Elapsed time = 7.81 sec. (4821.19 ticks, tree = 0.02 MB, solutions = 0)
*    18+    3                         1566.3216     3888.6985           148.27%
*    77     3      integral     0     3888.6985     3888.6985     9509    0.00%
    108    23    infeasible           3888.6985     3888.6985     8332    0.00%

Implied bound cuts applied:  3
Flow cuts applied:  8
Gomory fractional cuts applied:  4

Root node processing (before b&c):
  Real time             =    6.78 sec. (4813.69 ticks)
Parallel b&c, 32 threads:
  Real time             =    1.98 sec. (285.34 ticks)
  Sync time (average)   =    1.06 sec.
  Wait time (average)   =    0.00 sec.
                          ------------
Total (root+branch&cut) =    8.77 sec. (5099.03 ticks)

Solution pool: 2 solutions saved.

MIP - Integer optimal solution:  Objective =  3.8886984804e+03
Solution time =    8.80 sec.  Iterations = 9533  Nodes = 109
Deterministic time = 5099.18 ticks  (579.65 ticks/sec)

CPLEX> Incumbent solution written to file 'C:\Users\llavin\Desktop\test919\logs\tmpri1xsdox.cplex.sol'.
CPLEX> NOTE: no warmstart specified for MIP iteration, default behavior is true
NOTE: resolving with all competitive generators using storage-only solution to warmstart
Solving...

Welcome to IBM(R) ILOG(R) CPLEX(R) Interactive Optimizer 12.9.0.0
  with Simplex, Mixed Integer & Barrier Optimizers
5725-A06 5725-A29 5724-Y48 5724-Y49 5724-Y54 5724-Y55 5655-Y21
Copyright IBM Corp. 1988, 2019.  All Rights Reserved.

Type 'help' for a list of available commands.
Type 'help' followed by a command name for more
information on commands.

CPLEX> Logfile 'cplex.log' closed.
Logfile 'C:\Users\llavin\Desktop\test919\logs\tmp_ydodh6u.cplex.log' open.
CPLEX> New value for parallel optimization mode: -1
CPLEX> New value for mixed integer optimality gap tolerance: 0.01
CPLEX> New value for integrality tolerance: 1e-09
CPLEX> New value for feasibility tolerance: 0.01
CPLEX> New value for deterministic time limit in ticks: 75000
CPLEX> Problem 'C:\Users\llavin\Desktop\test919\logs\tmpsxbtdlbo.pyomo.lp' read.
Read time = 0.23 sec. (14.81 ticks)
CPLEX> MIP start file 'C:\Users\llavin\Desktop\test919\logs\tmp3skq6sj1.cplex.mst' read.
CPLEX> Problem name         : C:\Users\llavin\Desktop\test919\logs\tmpsxbtdlbo.pyomo.lp
Objective sense      : Maximize
Variables            :   54525  [Nneg: 1,  Box: 22720,  Free: 4464,
                                 Binary: 27340]
Objective nonzeros   :    9723
Linear constraints   :  123205  [Less: 41346,  Greater: 59096,  Equal: 22763]
  Nonzeros           :  291751
  RHS nonzeros       :   67489

Variables            : Min LB: -5000.000        Max UB: 1000000.       
Objective nonzeros   : Min   : 0.8000000        Max   : 2500.000       
Linear constraints   :
  Nonzeros           : Min   : 0.8000000        Max   : 1000000.       
  RHS nonzeros       : Min   : 0.8000000        Max   : 1000000.       
CPLEX> CPXPARAM_Parallel                                -1
CPXPARAM_Simplex_Tolerances_Feasibility          0.01
CPXPARAM_DetTimeLimit                            75000
CPXPARAM_MIP_Tolerances_MIPGap                   0.01
CPXPARAM_MIP_Tolerances_Integrality              1.0000000000000001e-09
Warning:  No solution found from 1 MIP starts.
Retaining values of one MIP start for possible repair.
Tried aggregator 3 times.
MIP Presolve eliminated 88737 rows and 19781 columns.
MIP Presolve added 3376 rows and 0 columns.
MIP Presolve modified 24764 coefficients.
Aggregator did 12964 substitutions.
Reduced MIP has 24880 rows, 21224 columns, and 70957 nonzeros.
Reduced MIP has 8386 binaries, 0 generals, 0 SOSs, and 0 indicators.
Presolve time = 0.28 sec. (176.40 ticks)
Probing fixed 403 vars, tightened 2828 bounds.
Probing time = 1.19 sec. (885.12 ticks)
Tried aggregator 2 times.
MIP Presolve eliminated 912 rows and 808 columns.
MIP Presolve modified 2211 coefficients.
Aggregator did 40 substitutions.
Reduced MIP has 23928 rows, 20376 columns, and 68195 nonzeros.
Reduced MIP has 7983 binaries, 0 generals, 0 SOSs, and 0 indicators.
Presolve time = 0.11 sec. (68.11 ticks)
Probing time = 0.05 sec. (15.86 ticks)
Clique table members: 6383.
MIP emphasis: balance optimality and feasibility.
MIP search method: dynamic search.
Parallel mode: opportunistic, using up to 32 threads.
Root relaxation solution time = 0.45 sec. (342.14 ticks)

        Nodes                                         Cuts/
   Node  Left     Objective  IInf  Best Integer    Best Bound    ItCnt     Gap

      0     0    13183.6481  1879                  13183.6481     8065         
      0     0    13183.6481   606                   Cuts: 993     8561         
      0     0    13183.6481   439                   Cuts: 598     8870         
      0     0    13183.6481   357                   Cuts: 292     8989         
      0     0    13183.6481   301                   Cuts: 141     9041         
      0     0    13183.6481   251                   Cuts: 119     9091         
      0     0    13183.6481   233                    Cuts: 67     9114         
      0     0    13183.6481   220                    Cuts: 39     9127         
      0     0    13183.6481   211                    Cuts: 28     9142         
      0     0    13183.6481   210                    Cuts: 19     9153         
      0     0    13183.6481   208                    Cuts: 18     9155         
Repair heuristic found nothing.
      0     6    infeasible                           Cuts: 7     9289         
Elapsed time = 10.94 sec. (6223.04 ticks, tree = 0.02 MB, solutions = 0)
    333    57    -2928.1141   173                  13064.8135     9858         
    913   274     8891.8544   162                  13064.8135    13015         
   1584   434    -5770.5593   156                  13064.8135    18097         
   2348   611    10540.3072   135                  13064.8135    19603         
*  2981+ 2647                       -10614.2460    13064.8135           223.09%
   4055  2037    10697.5259    98   -10614.2460    13064.8135    34622  223.09%
   5182  3041     8872.4334    84   -10614.2460    13064.8135    41211  223.09%
*  5684  3458      integral     0    12883.2590    13064.8135    41777    1.41%
   6343  3160    10316.5302   113    12883.2590    13064.8135    41324    1.41%
*  6954   763      integral     0    13058.0198    13064.8135    42184    0.05%
*  7155   625      integral     0    13059.5832    13064.8135    42344    0.04%
Elapsed time = 21.33 sec. (8669.18 ticks, tree = 1.64 MB, solutions = 12)
*  7176   685      integral     0    13059.5832    13064.8135    42213    0.04%

Clique cuts applied:  6
Cover cuts applied:  1
Implied bound cuts applied:  41
Flow cuts applied:  687
Mixed integer rounding cuts applied:  17
Gomory fractional cuts applied:  33

Root node processing (before b&c):
  Real time             =    9.16 sec. (6191.43 ticks)
Parallel b&c, 32 threads:
  Real time             =   12.59 sec. (2907.10 ticks)
  Sync time (average)   =    0.52 sec.
  Wait time (average)   =    0.00 sec.
                          ------------
Total (root+branch&cut) =   21.75 sec. (9098.53 ticks)

Solution pool: 12 solutions saved.

MIP - Integer optimal, tolerance (0.01/1e-06):  Objective =  1.3059583205e+04
Current MIP best bound =  1.3064813537e+04 (gap = 5.23033, 0.04%)
Solution time =   21.77 sec.  Iterations = 45560  Nodes = 7263 (116)
Deterministic time = 9098.69 ticks  (418.04 ticks/sec)

CPLEX> Incumbent solution written to file 'C:\Users\llavin\Desktop\test919\logs\tmpc1ht38vn.cplex.sol'.
CPLEX> Exporting results... 
